c generated by sgen
p cnf 65 140
-2 -3 -4 0
-1 -3 -4 0
-1 -2 -4 0
-1 -2 -3 0
-6 -7 -8 0
-5 -7 -8 0
-5 -6 -8 0
-5 -6 -7 0
-10 -11 -12 0
-9 -11 -12 0
-9 -10 -12 0
-9 -10 -11 0
-14 -15 -16 0
-13 -15 -16 0
-13 -14 -16 0
-13 -14 -15 0
-18 -19 -20 0
-17 -19 -20 0
-17 -18 -20 0
-17 -18 -19 0
-22 -23 -24 0
-21 -23 -24 0
-21 -22 -24 0
-21 -22 -23 0
-26 -27 -28 0
-25 -27 -28 0
-25 -26 -28 0
-25 -26 -27 0
-30 -31 -32 0
-29 -31 -32 0
-29 -30 -32 0
-29 -30 -31 0
-34 -35 -36 0
-33 -35 -36 0
-33 -34 -36 0
-33 -34 -35 0
-38 -39 -40 0
-37 -39 -40 0
-37 -38 -40 0
-37 -38 -39 0
-42 -43 -44 0
-41 -43 -44 0
-41 -42 -44 0
-41 -42 -43 0
-46 -47 -48 0
-45 -47 -48 0
-45 -46 -48 0
-45 -46 -47 0
-50 -51 -52 0
-49 -51 -52 0
-49 -50 -52 0
-49 -50 -51 0
-54 -55 -56 0
-53 -55 -56 0
-53 -54 -56 0
-53 -54 -55 0
-58 -59 -60 0
-57 -59 -60 0
-57 -58 -60 0
-57 -58 -59 0
-61 -62 -63 0
-61 -62 -64 0
-61 -62 -65 0
-61 -63 -64 0
-61 -63 -65 0
-61 -64 -65 0
-62 -63 -64 0
-62 -63 -65 0
-62 -64 -65 0
-63 -64 -65 0
38 27 4 0
21 27 4 0
21 38 4 0
21 38 27 0
22 46 32 0
14 46 32 0
14 22 32 0
14 22 46 0
3 18 35 0
63 18 35 0
63 3 35 0
63 3 18 0
41 49 54 0
1 49 54 0
1 41 54 0
1 41 49 0
9 57 2 0
31 57 2 0
31 9 2 0
31 9 57 0
10 53 8 0
37 53 8 0
37 10 8 0
37 10 53 0
15 17 51 0
40 17 51 0
40 15 51 0
40 15 17 0
11 25 20 0
47 25 20 0
47 11 20 0
47 11 25 0
43 61 39 0
45 61 39 0
45 43 39 0
45 43 61 0
29 59 56 0
34 59 56 0
34 29 56 0
34 29 59 0
33 52 48 0
7 52 48 0
7 33 48 0
7 33 52 0
62 55 16 0
60 55 16 0
60 62 16 0
60 62 55 0
28 13 36 0
44 13 36 0
44 28 36 0
44 28 13 0
65 24 12 0
50 24 12 0
50 65 12 0
50 65 24 0
30 5 64 0
26 5 64 0
26 30 64 0
26 30 5 0
42 6 19 0
42 6 23 0
42 6 58 0
42 19 23 0
42 19 58 0
42 23 58 0
6 19 23 0
6 19 58 0
6 23 58 0
19 23 58 0
